
Gurobi 6.5.2 (win64) logging started 07/23/16 01:50:36


Gurobi 6.5.2 (win64) logging started 07/23/16 01:50:36

Optimize a model with 4838 rows, 406 columns and 10442 nonzeros
Coefficient statistics:
  Matrix range    [1e+00, 4e+01]
  Objective range [7e+00, 4e+01]
  Bounds range    [1e+00, 1e+00]
  RHS range       [1e+00, 4e+02]
Presolve removed 4742 rows and 113 columns
Presolve time: 0.02s
Presolved: 96 rows, 293 columns, 1267 nonzeros
Variable types: 0 continuous, 293 integer (293 binary)

Root relaxation: objective 3.870000e+02, 71 iterations, 0.00 seconds

    Nodes    |    Current Node    |     Objective Bounds      |     Work
 Expl Unexpl |  Obj  Depth IntInf | Incumbent    BestBd   Gap | It/Node Time

*    0     0               0     387.0000000  387.00000  0.00%     -    0s

Explored 0 nodes (71 simplex iterations) in 0.02 seconds
Thread count was 8 (of 8 available processors)

Optimal solution found (tolerance 1.00e-04)
Best objective 3.870000000000e+02, best bound 3.870000000000e+02, gap 0.0%

Wrote requested result file 'H2\instance1\\Results1SG_Sol3.lp'

